Set parameter TokenServer to value "hpc-licenses.hpcc.usc.edu"
Set parameter TimeLimit to value 3600
Gurobi Optimizer version 9.5.1 build v9.5.1rc2 (linux64)
Thread count: 20 physical cores, 20 logical processors, using up to 20 threads
Optimize a model with 6007 rows, 4529 columns and 24534 nonzeros
Model fingerprint: 0x55aeeaa0
Variable types: 4506 continuous, 23 integer (23 binary)
Coefficient statistics:
  Matrix range     [1e+00, 1e+00]
  Objective range  [1e-02, 1e+00]
  Bounds range     [1e+00, 1e+00]
  RHS range        [1e+00, 4e+01]
Presolve removed 1514 rows and 1511 columns
Presolve time: 0.08s
Presolved: 4493 rows, 3018 columns, 21993 nonzeros
Variable types: 2998 continuous, 20 integer (20 binary)
Found heuristic solution: objective 255.8293927

Root relaxation: objective 2.591366e+02, 2025 iterations, 0.09 seconds (0.08 work units)

    Nodes    |    Current Node    |     Objective Bounds      |     Work
 Expl Unexpl |  Obj  Depth IntInf | Incumbent    BestBd   Gap | It/Node Time

     0     0  259.13662    0    3  255.82939  259.13662  1.29%     -    0s
     0     0  259.00712    0    4  255.82939  259.00712  1.24%     -    0s
     0     0  258.87714    0    4  255.82939  258.87714  1.19%     -    0s
     0     0  258.76709    0    4  255.82939  258.76709  1.15%     -    0s
H    0     0                     258.5339461  258.75658  0.09%     -    0s
     0     0  258.53395    0    3  258.53395  258.53395  0.00%     -    0s

Cutting planes:
  Gomory: 3
  MIR: 134
  Flow cover: 3
  RLT: 19

Explored 1 nodes (2725 simplex iterations) in 0.62 seconds (0.36 work units)
Thread count was 20 (of 20 available processors)

Solution count 2: 258.534 255.829 

Optimal solution found (tolerance 1.00e-04)
Best objective 2.585339461117e+02, best bound 2.585339461117e+02, gap 0.0000%



#########node  1
V1.9
#########node  2
0.24528301886792453,0.7547169811320755
#########node  3
1.0,0.0


Total Solving Time 0.9844107627868652
obj value 258.5339461117386
Policy Regret train (Sum) 1.515319924254638
Best Treatment Found train (%) 88.8
treatment classification acc train (%) 56.2
Policy Regret test (Sum) 145.29074060878332
Best Treatment Found test (%) 59.919999999999995
treatment classification acc test (%) 57.89
